# command line:  
#       KaDE   n_phos_sites_with_counter_2.ka    -print-efficiency    -ode-backend  DOTNET    -dotnet-output   network_n_phos_sites_with_counter_2_wo_sym.net   -propagate-constants  
# THINGS THAT ARE KNOWN FROM KAPPA FILE AND KaSim OPTIONS:
# 
# init - the initial abundances of each species and token
# tinit - the initial simulation time (likely 0)
# tend - the final simulation time 
# initialstep - initial time step at the beginning of numerical integration
# maxstep - maximal time step for numerical integration
# reltol - relative error tolerance;
# abstol - absolute error tolerance;
# period - the time period between points to return
#
# variables (init(i),y(i)) denote numbers of embeddings 
# rule rates are corrected by the number of automorphisms in the lhs of rules

begin species
 1 A(s1~u,s2~u,p!1).P(l!1,r) 100
 2 A(s1~p,s2~u,p!1).P(l!2,r).P(l!1,r!2) 0
 3 A(s1~u,s2~p,p!1).P(l!2,r).P(l!1,r!2) 0
 4 A(s1~p,s2~p,p!1).P(l!2,r).P(l!3,r!2).P(l!1,r!3) 0
end species




begin reactions
# rule    : A(s2~u,p!1), P(l!1,r!2), P(l!2,r) -> A(s2~p,p!1), P(l!2,r!2), P(l!2,r), P(l!1,r!2) 
# A(s1~p, s2~u, p!1), P(l!2, r), P(l!1, r!2) -> A(s1~p, s2~p, p!1), P(l!2, r), P(l!3, r!2), P(l!1, r!3)  
1 2 4 15
# rule    : A(s1~p,p!1), P(l!2,r), P(l!1,r!2) -> A(s1~u,p!1), P(l!1,r) 
# A(s1~p, s2~u, p!1), P(l!2, r), P(l!1, r!2) -> A(s1~u, s2~u, p!1), P(l!1, r)  
2 2 1 14
# rule    : A(s2~p,p!1), P(l!2,r!3), P(l!3,r), P(l!1,r!2) -> A(s2~u,p!1), P(l!1,r!3), P(l!3,r) 
# A(s1~p, s2~p, p!1), P(l!2, r), P(l!3, r!2), P(l!1, r!3) -> A(s1~p, s2~u, p!1), P(l!2, r), P(l!1, r!2)  
3 4 2 98
# rule    : A(s1~p,p!1), P(l!2,r!3), P(l!3,r), P(l!1,r!2) -> A(s1~u,p!1), P(l!1,r!3), P(l!3,r) 
# A(s1~p, s2~p, p!1), P(l!2, r), P(l!3, r!2), P(l!1, r!3) -> A(s1~u, s2~p, p!1), P(l!2, r), P(l!1, r!2)  
4 4 3 98
# rule    : A(s2~p,p!1), P(l!2,r), P(l!1,r!2) -> A(s2~u,p!1), P(l!1,r) 
# A(s1~u, s2~p, p!1), P(l!2, r), P(l!1, r!2) -> A(s1~u, s2~u, p!1), P(l!1, r)  
5 3 1 14
# rule    : A(s1~u,p!1), P(l!1,r!2), P(l!2,r) -> A(s1~p,p!1), P(l!2,r!2), P(l!2,r), P(l!1,r!2) 
# A(s1~u, s2~p, p!1), P(l!2, r), P(l!1, r!2) -> A(s1~p, s2~p, p!1), P(l!2, r), P(l!3, r!2), P(l!1, r!3)  
6 3 4 15
# rule    : A(s2~u,p!1), P(l!1,r) -> A(s2~p,p!1), P(l!2,r), P(l!1,r!2) 
# A(s1~u, s2~u, p!1), P(l!1, r) -> A(s1~u, s2~p, p!1), P(l!2, r), P(l!1, r!2)  
7 1 3 3
# rule    : A(s1~u,p!1), P(l!1,r) -> A(s1~p,p!1), P(l!2,r), P(l!1,r!2) 
# A(s1~u, s2~u, p!1), P(l!1, r) -> A(s1~p, s2~u, p!1), P(l!2, r), P(l!1, r!2)  
8 1 2 3
end reactions
